language ESSENCE' 1.0

letting setA_Occurrence be
        [false, false, true, true, true, true, false, true, false, true, false, false, false, false, true, false, true,
         false, true, true, true, true, false, false;
             int(1..24)]
letting setB_Explicit be [1, 2, 7, 9, 11, 12, 13, 14, 16, 18, 23, 24; int(1..12)]
